387 367 10
0 1 0
1 2 0
2 3 0
3 4 0
4 5 0
5 6 0
6 7 0
7 8 0
8 9 0
9 10 0
10 11 0
11 12 0
12 13 0
13 14 0
15 16 1
16 17 1
17 18 1
18 19 1
19 20 1
20 21 1
21 22 1
22 23 1
23 24 1
24 25 1
25 26 1
26 27 1
27 28 1
28 29 1
29 30 1
30 31 1
31 32 1
32 33 1
33 34 1
35 36 2
36 37 2
37 38 2
38 39 2
39 40 2
40 41 2
41 42 2
42 43 2
43 44 2
44 45 2
45 46 2
46 47 2
47 48 2
48 49 2
49 50 2
50 51 2
51 52 2
52 53 2
53 54 2
54 55 2
55 56 2
56 57 2
58 59 3
59 60 3
60 61 3
61 62 3
62 63 3
63 64 3
64 65 3
65 66 3
66 67 3
67 68 3
68 69 3
69 70 3
70 71 3
71 72 3
72 73 3
73 74 3
74 75 3
76 77 4
77 78 4
78 79 4
79 80 4
80 81 4
81 82 4
82 83 4
83 84 4
84 85 4
85 86 4
86 87 4
87 88 4
88 89 4
89 90 4
90 91 4
91 92 4
92 93 4
93 94 4
94 95 4
95 96 4
97 98 5
98 99 5
99 100 5
100 101 5
101 102 5
102 103 5
103 104 5
104 105 5
105 106 5
106 107 5
107 108 5
108 109 5
109 110 5
110 111 5
112 113 6
113 114 6
114 115 6
115 116 6
116 117 6
117 118 6
118 119 6
119 120 6
120 121 6
121 122 6
122 123 6
123 124 6
124 125 6
125 126 6
126 127 6
127 128 6
129 130 7
130 131 7
131 132 7
132 133 7
133 134 7
134 135 7
135 136 7
136 137 7
137 138 7
138 139 7
139 140 7
140 141 7
141 142 7
142 143 7
143 144 7
144 145 7
145 146 7
146 147 7
147 148 7
148 149 7
149 150 7
150 151 7
151 152 7
152 153 7
154 155 8
155 156 8
156 157 8
157 158 8
158 159 8
159 160 8
160 161 8
161 162 8
162 163 8
163 164 8
164 165 8
165 166 8
166 167 8
167 168 8
168 169 8
169 170 8
170 171 8
171 172 8
172 173 8
173 174 8
174 175 8
175 176 8
177 178 9
178 179 9
179 180 9
180 181 9
181 182 9
182 183 9
183 184 9
184 185 9
185 186 9
186 187 9
187 188 9
188 189 9
189 190 9
190 191 9
191 192 9
192 193 9
193 194 9
194 195 9
196 197 10
197 198 10
198 199 10
199 200 10
200 201 10
201 202 10
202 203 10
203 204 10
204 205 10
205 206 10
206 207 10
207 208 10
208 209 10
209 210 10
210 211 10
211 212 10
212 213 10
213 214 10
215 216 11
216 217 11
217 218 11
218 219 11
219 220 11
220 221 11
221 222 11
222 223 11
223 224 11
224 225 11
225 226 11
226 227 11
227 228 11
228 229 11
229 230 11
230 231 11
231 232 11
232 233 11
233 234 11
234 235 11
236 237 12
237 238 12
238 239 12
239 240 12
240 241 12
241 242 12
242 243 12
243 244 12
244 245 12
245 246 12
246 247 12
247 248 12
248 249 12
249 250 12
250 251 12
252 253 13
253 254 13
254 255 13
255 256 13
256 257 13
257 258 13
258 259 13
259 260 13
260 261 13
261 262 13
262 263 13
263 264 13
264 265 13
265 266 13
266 267 13
268 269 14
269 270 14
270 271 14
271 272 14
272 273 14
273 274 14
274 275 14
275 276 14
276 277 14
277 278 14
278 279 14
279 280 14
280 281 14
281 282 14
282 283 14
283 284 14
284 285 14
285 286 14
286 287 14
287 288 14
288 289 14
289 290 14
290 291 14
291 292 14
293 294 15
294 295 15
295 296 15
296 297 15
297 298 15
298 299 15
299 300 15
300 301 15
301 302 15
302 303 15
303 304 15
304 305 15
305 306 15
306 307 15
307 308 15
308 309 15
310 311 16
311 312 16
312 313 16
313 314 16
314 315 16
315 316 16
316 317 16
317 318 16
318 319 16
319 320 16
320 321 16
321 322 16
322 323 16
323 324 16
324 325 16
325 326 16
326 327 16
327 328 16
328 329 16
329 330 16
331 332 17
332 333 17
333 334 17
334 335 17
335 336 17
336 337 17
337 338 17
338 339 17
339 340 17
340 341 17
341 342 17
342 343 17
343 344 17
344 345 17
345 346 17
346 347 17
348 349 18
349 350 18
350 351 18
351 352 18
352 353 18
353 354 18
354 355 18
355 356 18
356 357 18
357 358 18
358 359 18
359 360 18
360 361 18
361 362 18
362 363 18
363 364 18
364 365 18
365 366 18
366 367 18
367 368 18
368 369 18
369 370 18
371 372 19
372 373 19
373 374 19
374 375 19
375 376 19
376 377 19
377 378 19
378 379 19
379 380 19
380 381 19
381 382 19
382 383 19
383 384 19
384 385 19
385 386 19
3 3 67 6 69 7 67
1 9 32
1 4 16
1 7 66
1 5 90
3 3 44 7 46 8 38
1 8 89
1 8 63
1 1 44
1 6 87
1 2 73
2 1 33 8 31
3 1 90 2 92 6 96
1 1 16
1 0 19
1 3 90
2 2 27 9 27
1 8 77
1 9 40
1 7 70
3 0 47 8 45 9 47
1 0 56
1 5 44
2 2 50 4 50
3 3 69 6 67 9 68
3 0 75 3 73 9 74
1 9 75
2 4 79 9 79
1 5 45
1 9 94
1 6 65
2 1 31 9 25
1 3 85
3 2 75 5 71 7 71
3 0 44 3 45 5 45
1 0 55
1 3 53
1 3 35
1 4 93
1 9 33
1 7 62
1 4 66
1 9 61
1 6 56
1 5 29
2 1 27 4 22
1 0 37
2 2 71 3 66
2 1 76 4 72
1 3 69
2 2 61 6 67
1 9 49
1 1 57
3 3 57 6 60 8 59
2 1 63 3 67
1 4 90
1 9 27
1 4 58
2 7 22 8 24
1 2 61
1 1 35
1 5 92
1 3 30
1 9 79
2 0 44 3 42
2 0 62 7 63
1 0 93
1 0 69
1 2 89
1 6 49
1 1 38
3 3 54 5 54 7 54
1 6 87
2 2 46 6 38
3 0 82 5 81 6 81
2 2 40 8 40
1 2 86
1 5 65
1 1 94
1 4 50
1 3 31
1 8 59
1 3 92
1 1 67
1 3 60
1 8 93
1 4 45
1 7 95
2 1 71 7 63
1 6 79
1 1 68
2 7 21 8 21
1 2 35
1 9 36
2 8 24 9 24
1 5 90
1 5 85
1 9 70
1 5 20
1 7 81
1 4 42
1 9 70
1 4 43
1 1 95
1 9 22
1 9 35
1 4 87
1 5 72
1 8 86
1 9 52
1 5 32
1 4 47
1 2 62
3 3 55 5 58 9 60
4 6 89 7 96 8 95 9 92
2 0 70 3 71
2 0 72 5 76
1 7 15
1 9 36
1 6 55
1 3 48
1 1 22
2 6 59 8 58
1 7 80
1 7 45
1 4 71
1 1 33
3 1 48 7 52 9 51
1 2 51
1 4 34
1 2 75
1 9 41
2 1 70 6 67
1 5 63
2 5 40 9 44
1 9 21
3 5 31 7 36 8 33
2 4 43 5 45
1 9 94
2 2 55 3 62
1 7 38
1 1 70
1 0 25
2 0 29 3 29
1 1 64
1 5 57
1 6 63
1 0 42
2 0 47 3 44
1 0 82
1 9 43
1 6 79
1 0 51
1 5 74
1 1 37
2 2 78 6 76
1 2 46
1 0 75
1 0 47
1 8 22
1 7 65
1 5 99
1 1 20
1 5 41
1 5 97
1 2 84
1 5 44
1 1 82
1 9 41
1 8 61
1 4 56
1 0 33
2 1 60 2 64
2 4 49 7 55
3 3 86 4 88 6 88
2 3 35 7 30
2 4 79 9 78
1 1 41
1 8 35
1 2 40
1 3 77
1 6 69
4 2 62 6 64 8 65 9 63
1 0 74
1 6 24
1 6 51
1 1 21
2 5 45 9 37
3 1 25 6 25 8 23
2 0 73 7 75
1 2 86
2 3 59 8 60
1 3 90
1 2 54
1 1 79
1 3 60
1 8 63
2 2 88 3 87
1 3 46
2 1 83 5 79
1 1 69
1 5 47
1 9 91
3 2 86 3 88 8 83
1 3 38
1 3 68
1 7 20
1 5 51
1 5 22
1 3 60
1 8 22
1 0 82
1 1 23
1 6 83
1 2 50
1 7 52
2 5 62 9 59
2 2 21 4 16
1 3 64
1 8 67
1 0 46
2 1 47 3 47
1 2 38
1 4 12
1 5 78
1 8 13
1 8 93
1 0 28
1 6 81
4 1 33 3 37 4 40 5 39
1 7 40
1 1 45
1 6 51
1 8 59
1 3 55
1 9 30
1 8 97
2 1 89 6 84
2 0 41 3 42
1 7 56
1 2 80
1 6 94
1 5 87
1 0 86
2 1 57 4 58
1 4 22
1 0 88
1 7 65
1 7 67
1 5 91
1 4 40
3 3 53 7 49 8 57
1 2 60
3 2 26 7 27 8 27
1 4 81
1 4 14
1 7 17
1 0 63
1 5 60
1 1 42
1 8 69
1 1 73
1 7 50
1 9 23
1 3 48
1 2 72
1 3 28
2 2 41 5 36
1 9 15
1 1 48
2 3 22 7 23
3 0 70 5 70 6 73
4 0 40 3 35 6 40 8 35
1 9 84
1 0 14
1 6 53
1 7 50
1 8 77
2 1 78 8 78
1 2 73
1 7 85
1 3 36
1 7 53
2 0 22 4 25
1 3 48
2 0 34 3 30
1 1 45
1 9 32
1 7 55
1 8 29
1 0 59
1 5 15
1 7 89
1 5 55
1 0 69
3 0 64 2 63 4 63
1 3 39
1 7 29
1 3 38
1 9 67
1 7 58
1 2 43
1 4 38
2 3 67 7 63
1 5 83
1 7 26
2 5 34 6 32
1 2 82
1 9 72
2 1 68 6 68
1 4 74
1 0 65
1 7 39
1 7 25
2 1 82 2 78
1 2 29
2 0 58 5 55
1 1 81
1 0 43
1 7 67
1 5 56
1 8 48
2 0 56 5 59
2 1 54 7 54
1 8 41
1 6 77
1 1 88
1 0 22
1 7 38
2 2 61 5 61
1 7 83
2 3 16 7 15
3 4 43 7 39 9 39
1 5 16
1 2 78
2 0 47 6 47
2 5 78 7 77
1 8 23
1 2 92
3 2 73 3 75 7 75
1 3 44
1 5 84
2 4 76 5 73
1 7 90
2 0 39 5 39
1 1 47
1 2 94
1 7 90
1 6 62
1 3 85
1 6 75
1 8 22
1 0 21
1 7 22
2 5 48 6 42
1 1 67
1 1 22
2 7 71 9 71
3 3 27 5 23 9 23
2 1 27 8 24
2 1 47 5 45
1 3 25
1 0 67
1 1 23
1 1 85
1 5 45
2 1 82 6 81
1 4 34
1 2 44
1 0 16
2 0 27 9 27
2 2 51 3 48
1 0 19
1 5 92
1 1 27
2 2 34 6 32
1 0 92
1 7 68
1 0 47
2 3 48 5 44
1 5 54
1 8 89
1 6 76
1 7 72
2 2 55 6 57
1 0 67
1 8 82